TYPE : Vertex Cover
DIMENSION: 27
EDGE_DATA_SECTION:
0 2
0 24
1 19
1 22
1 24
2 3
2 5
2 26
3 18
3 21
3 25
4 12
4 14
4 17
4 19
4 23
4 24
5 21
5 25
6 8
6 14
6 16
6 21
7 10
7 12
7 26
8 10
8 14
9 10
9 11
9 12
9 13
9 15
9 18
10 11
10 16
10 19
10 23
10 24
11 14
11 26
12 24
13 15
14 26
16 22
16 26
17 26
18 21
18 24
20 21
20 25
21 23
-1
VERTEX_DEGREE:
2.0 3.0 4.0 4.0 6.0 3.0 4.0 3.0 3.0 6.0 8.0 4.0 4.0 2.0 5.0 2.0 4.0 2.0 4.0 3.0 2.0 6.0 2.0 3.0 6.0 3.0 6.0
VERTEX_COVER:
1 2 3 4 6 9 10 12 14 15 21 22 24 25 26
EOF
